webassembly/ejemplos_dzn/folder13_json_75.dzn
TERM = { '.', 's(5)', 's(2)', 'in_1', 'local_0', 'in_6', 'in_2', 'in_4', 'in_3', 'in_9', 'in_8', 's(6)', 's(1)', 's(0)', 'in_7', 'in_5', 's(3)', 'in_0'};
null = '.';
s = 13;
n = 15;
ndeps = 10;
max_registers_sz = 4;
NR = 1;
registers = [|'local_0', 'in_5'|];
dependencies = [|'i32.store_1', 'i32.load_2', |'i32.store_1', 'i32.load_3', |'i32.store_1', 'i32.load_4', |'i32.store_1', 'i32.load_5', |'i32.load_2', 'i32.store_10', |'i32.load_3', 'i32.store_10', |'i32.load_4', 'i32.store_10', |'i32.load_5', 'i32.store_10', |'i32.store_10', 'i32.load_11', |'i32.load_11', 'i32.store16_12'|];
GET_ENUM = { GET1, GET2, GET3, GET4, GET5};
SET_ENUM = { SET1, SET2, SET3, SET4, SET5};
TEE_ENUM = { TEE1, TEE2, TEE3, TEE4, TEE5};
N = 9;
OP = { 'i32.store_1', 'i32.load_2', 'i32.load_3', 'i32.load_4', 'i32.load_5', 'i32.add_0', 'i32.store_10', 'i32.load_11', 'i32.store16_12' };
in_ops = [2, 1, 1, 1, 1, 2, 2, 1, 2 ];
out_ops = [0, 1, 1, 1, 1, 1, 0, 1, 0 ];
in1 = ['in_1', 'in_3', 's(0)', 's(1)', 's(2)', 'in_5', 's(5)', 'in_8', 's(6)' ];
in2 = ['in_2', '.', '.', '.', '.', 'in_6', 'in_7', '.', 'in_9' ];
in3 = ['.', '.', '.', '.', '.', '.', '.', '.', '.' ];
out1 = ['.', 's(0)', 's(1)', 's(2)', 's(3)', 's(5)', '.', 's(6)', '.' ];
out2 = ['.', '.', '.', '.', '.', '.', '.', '.', '.' ];
out3 = ['.', '.', '.', '.', '.', '.', '.', '.', '.' ];
comm = [false, false, false, false, false, true, false, false, false ];
gas = [1, 1, 1, 1, 1, 1, 1, 1, 1 ];
sz = [1, 1, 1, 1, 1, 1, 1, 1, 1 ];
stor = [true, false, false, false, false, false, true, false, true ];
lb = [ 1, 1, 1, 1, 1, 1, 1, 1, 1 ];
ub = [ 13, 13, 13, 13, 13, 13, 13, 13, 13 ];
startstack = [ 'in_0', 'in_1', 'in_2', 'in_3', 'in_4', 'in_5', 'in_6', 'in_7', 'in_8', 'in_9', null, null, null, null, null ];
endstack = [ null, null, null, null, null, null, null, null, null, null, null, null, null, null, null ];
