webassembly/ejemplos_results/13/folder13_json_75.txt
value = 13;
fgas = [2, 1, 1, 1, 1, 1, 1, 1, 1, 2, 1, 1, 1];
fsize = [1, 1, 1, 1, 1, 1, 1, 1, 1, 1, 1, 1, 1];
states = 
[|   in_0, in_1, in_2, in_3, in_4, in_5, in_6, in_7, in_8, in_9, '.', '.', '.', '.', '.'
 |   in_1, in_2, in_3, in_4, in_5, in_6, in_7, in_8, in_9,  '.', '.', '.', '.', '.', '.'
 |   in_6, in_5, in_5, in_6, in_7, in_8, in_9,  '.',  '.',  '.', '.', '.', '.', '.', '.'
 | 's(5)', in_7, in_6, in_7, in_8, in_9,  '.',  '.',  '.',  '.', '.', '.', '.', '.', '.'
 | 's(2)', in_3, in_8, in_9,  '.',  '.',  '.',  '.',  '.',  '.', '.', '.', '.', '.', '.'
 | 's(3)', in_3, in_8, in_9,  '.',  '.',  '.',  '.',  '.',  '.', '.', '.', '.', '.', '.'
 |   in_3, in_8, in_9,  '.',  '.',  '.',  '.',  '.',  '.',  '.', '.', '.', '.', '.', '.'
 | 's(0)', in_8, in_9,  '.',  '.',  '.',  '.',  '.',  '.',  '.', '.', '.', '.', '.', '.'
 | 's(1)', in_8, in_9,  '.',  '.',  '.',  '.',  '.',  '.',  '.', '.', '.', '.', '.', '.'
 | 's(2)', in_8, in_9,  '.',  '.',  '.',  '.',  '.',  '.',  '.', '.', '.', '.', '.', '.'
 |   in_8, in_9,  '.',  '.',  '.',  '.',  '.',  '.',  '.',  '.', '.', '.', '.', '.', '.'
 | 's(6)', in_9,  '.',  '.',  '.',  '.',  '.',  '.',  '.',  '.', '.', '.', '.', '.', '.'
 |   in_5,  '.',  '.',  '.',  '.',  '.',  '.',  '.',  '.',  '.', '.', '.', '.', '.', '.'
 |    '.',  '.',  '.',  '.',  '.',  '.',  '.',  '.',  '.',  '.', '.', '.', '.', '.', '.'
 |];
register_states = 
[| local_0, '.', '.', '.', '.'
 | local_0, '.', '.', '.', '.'
 | local_0, '.', '.', '.', '.'
 | local_0, '.', '.', '.', '.'
 | local_0, '.', '.', '.', '.'
 | local_0, '.', '.', '.', '.'
 |  's(3)', '.', '.', '.', '.'
 |  's(3)', '.', '.', '.', '.'
 |  's(3)', '.', '.', '.', '.'
 |  's(3)', '.', '.', '.', '.'
 |  's(3)', '.', '.', '.', '.'
 |  's(3)', '.', '.', '.', '.'
 |  's(3)', '.', '.', '.', '.'
 |    in_5, '.', '.', '.', '.'
 |];
program = [POP, O('i32.store_1'), O('i32.add_0'), O('i32.store_10'), O('i32.load_5'), S(SET1), O('i32.load_2'), O('i32.load_3'), O('i32.load_4'), POP, O('i32.load_11'), O('i32.store16_12'), S(SET1)];
% time elapsed: 0.44 s
----------
==========
% time elapsed: 0.55 s
% [value > 12]
